nN = 6;
nR = 15;
nH = 1;

a = [[21, 18, 24, 17, 5, 8, 8, 18, 17, 11, 21, 8, 6, 25, 19], [23, 7, 19, 8, 19, 17, 6, 23, 25, 23, 18, 10, 14, 23, 14], [15, 24, 9, 6, 25, 21, 14, 22, 6, 22, 11, 7, 21, 18, 5], [17, 5, 17, 19, 24, 23, 21, 19, 12, 25, 8, 14, 22, 17, 22], [22, 9, 18, 24, 11, 23, 5, 25, 13, 13, 11, 18, 23, 24, 19], [17, 21, 19, 9, 16, 9, 23, 21, 21, 7, 23, 14, 22, 8, 21]];
c = [[[0, 0, 0, 0, 0, 0, 0, 0, 0, 0, 0, 0, 0, 0, 0], [36, 48, 32, 38, 36, 32, 39, 47, 49, 32, 47, 39, 45, 40, 43], [48, 39, 39, 39, 30, 36, 42, 35, 50, 42, 45, 32, 44, 34, 42], [44, 39, 42, 31, 41, 30, 36, 34, 41, 45, 35, 46, 37, 49, 47], [30, 34, 47, 50, 34, 44, 30, 44, 34, 30, 44, 39, 50, 37, 50], [31, 34, 38, 43, 43, 48, 38, 45, 33, 46, 45, 31, 46, 38, 41]], [[0, 0, 0, 0, 0, 0, 0, 0, 0, 0, 0, 0, 0, 0, 0], [0, 0, 0, 0, 0, 0, 0, 0, 0, 0, 0, 0, 0, 0, 0], [48, 41, 41, 50, 34, 50, 40, 50, 46, 32, 44, 49, 32, 35, 46], [33, 31, 37, 49, 49, 38, 47, 42, 46, 33, 47, 31, 48, 41, 32], [50, 33, 36, 32, 37, 47, 37, 47, 34, 31, 48, 50, 44, 40, 35], [50, 42, 33, 32, 46, 38, 42, 32, 43, 35, 30, 38, 33, 48, 35]], [[0, 0, 0, 0, 0, 0, 0, 0, 0, 0, 0, 0, 0, 0, 0], [0, 0, 0, 0, 0, 0, 0, 0, 0, 0, 0, 0, 0, 0, 0], [0, 0, 0, 0, 0, 0, 0, 0, 0, 0, 0, 0, 0, 0, 0], [42, 46, 49, 44, 39, 32, 50, 36, 30, 43, 50, 44, 30, 30, 44], [37, 39, 47, 46, 32, 40, 30, 32, 38, 47, 35, 38, 35, 49, 31], [45, 40, 46, 36, 31, 42, 46, 36, 40, 45, 42, 32, 34, 32, 33]], [[0, 0, 0, 0, 0, 0, 0, 0, 0, 0, 0, 0, 0, 0, 0], [0, 0, 0, 0, 0, 0, 0, 0, 0, 0, 0, 0, 0, 0, 0], [0, 0, 0, 0, 0, 0, 0, 0, 0, 0, 0, 0, 0, 0, 0], [0, 0, 0, 0, 0, 0, 0, 0, 0, 0, 0, 0, 0, 0, 0], [47, 37, 42, 30, 40, 34, 49, 36, 50, 36, 45, 49, 35, 33, 36], [37, 46, 38, 35, 46, 48, 42, 37, 34, 44, 34, 33, 30, 38, 33]], [[0, 0, 0, 0, 0, 0, 0, 0, 0, 0, 0, 0, 0, 0, 0], [0, 0, 0, 0, 0, 0, 0, 0, 0, 0, 0, 0, 0, 0, 0], [0, 0, 0, 0, 0, 0, 0, 0, 0, 0, 0, 0, 0, 0, 0], [0, 0, 0, 0, 0, 0, 0, 0, 0, 0, 0, 0, 0, 0, 0], [0, 0, 0, 0, 0, 0, 0, 0, 0, 0, 0, 0, 0, 0, 0], [32, 33, 45, 30, 49, 32, 37, 30, 38, 48, 48, 39, 43, 48, 37]], [[0, 0, 0, 0, 0, 0, 0, 0, 0, 0, 0, 0, 0, 0, 0], [0, 0, 0, 0, 0, 0, 0, 0, 0, 0, 0, 0, 0, 0, 0], [0, 0, 0, 0, 0, 0, 0, 0, 0, 0, 0, 0, 0, 0, 0], [0, 0, 0, 0, 0, 0, 0, 0, 0, 0, 0, 0, 0, 0, 0], [0, 0, 0, 0, 0, 0, 0, 0, 0, 0, 0, 0, 0, 0, 0], [0, 0, 0, 0, 0, 0, 0, 0, 0, 0, 0, 0, 0, 0, 0]]];
Q = [[28], [33], [30], [28], [29], [30]];

q = [[[10], [7], [15], [19], [6], [14], [11], [19], [21], [15], [20], [11], [6], [17], [14]], [[20], [23], [14], [11], [12], [22], [16], [8], [19], [13], [20], [23], [17], [13], [13]], [[6], [13], [12], [12], [13], [10], [24], [13], [19], [5], [25], [15], [20], [12], [25]], [[9], [5], [7], [18], [13], [11], [19], [21], [21], [13], [16], [8], [17], [13], [15]], [[25], [16], [22], [11], [6], [15], [13], [6], [7], [24], [9], [6], [10], [25], [18]], [[10], [24], [14], [17], [19], [17], [16], [5], [7], [21], [20], [9], [12], [20], [10]]];
p = [0.74, 0.08, 0.97, 0.45, 0.13, 0.01, 0.65, 0.89, 0.98, 0.18, 0.44, 0.22, 0.91, 0.02, 0.66];
